// +===========================================================+
//  EXAMPLE: TC-DMRG CALCULATION ON HE WITH A DOUBLE-ZETA BASIS
// +===========================================================+

// -- General parameters --
simulation_type               = "transcorrelated"
L                             = 14
max_bond_dimension            = 100
nsweeps                       = 20
ngrowsweeps                   = 3
nmainsweeps                   = 3
irrep                         = 0
nelec                         = 2
spin                          = 0
symmetry                      = '2u1pg'
u1_total_charge1              = 1
u1_total_charge2              = 1
LATTICE                       = "orbitals"
CONSERVED_QUANTUMNUMBERS      = "Nup,Ndown"
MODEL                         = "quantum_chemistry"
integral_file                 = "FCIDUMP_he_tz"
integral_cutoff               = 0.
optimization                  = twosite
conv_thresh                   = -1. 

// -- Transcorrelated options --
transcorrelated_nsweeps_TI    = 0
transcorrelated_nsweeps_TC    = 20
transcorrelated_integral_file = "FCIDUMP_he_tz_trans_TwoBody"

// -- SVD truncation --
truncation_initial            = 1e-20
truncation_final              = 1e-20

// -- Initialization and storage information --
init_type                     = "hf"
hf_occ                        = "4,1,1,1,1,1,1,1,1,1,1,1,1,1"
chkpfile                      = 'He_TCDMRG_DZ_m100_TS_TwoBody.checkpoint_state.0.h5'
resultfile                    = 'He_TCDMRG_DZ_m100_TS_TwoBody.results_state.0.h5'

// -- Time-dependent simulation --
propagator_accuracy           = 1.0E-10
propagator_maxiter            = 10
time_step                     = 100
hamiltonian_units             = "Hartree"
time_units                    = "as"
TD_backpropagation            = "no"
